100
100
100
100
99
98
95
94
93
93
93
92
92
91
91
91
88
88
87
86
85
83
81
81
81
80
80
80
79
77
77
77
76
75
73
71
71
71
70
69
68
67
66
65
63
60
60
59
59
59
59
56
54
54
54
54
53
53
52
51
51
49
46
44
44
43
42
42
41
41
41
39
35
34
34
32
32
31
30
29
28
27
22
22
21
21
20
17
14
12
12
11
11
10
10
8
8
6
6
5
5
4
